************************************************************************
file with basedata            : mm48_.bas
initial value random generator: 969271343
************************************************************************
projects                      :  1
jobs (incl. supersource/sink ):  12
horizon                       :  78
RESOURCES
  - renewable                 :  2   R
  - nonrenewable              :  2   N
  - doubly constrained        :  0   D
************************************************************************
PROJECT INFORMATION:
pronr.  #jobs rel.date duedate tardcost  MPM-Time
    1     10      0       13        4       13
************************************************************************
PRECEDENCE RELATIONS:
jobnr.    #modes  #successors   successors
   0        1          3           1   2   3
   1        3          1           9
   2        3          2           5   6
   3        3          3           4   7   9
   4        3          1           6
   5        3          1           8
   6        3          2           8  10
   7        3          2           8  10
   8        3          1          11
   9        3          1          11
  10        3          1          11
  11        1          0        
************************************************************************
REQUESTS/DURATIONS:
jobnr. mode duration  R 1  R 2  R 3  R 4  E(W 1)  E(W 2)  E(W 3)
------------------------------------------------------------------------
  0      1     0       0    0    0    0     0       0       0
  1      1     6       4    9    9    4    78      54      24
  2      1     1       5    4    3    4     9       3       4
  3      1     3       8    3    5    8    33      15      24
  4      1     2       7    6    8    6    26      16      12
  5      1     4       4    8    2    9    48       8      36
  6      1     2       2    5    8    7    14      16      14
  7      1     6       6    9    7    9    90      42      54
  8      1     2       8    8    7    5    32      14      10
  9      1     1       7    9    4    2    16       4       2
 10      1     4       7    3   10    9    40      40      36
 11      1     0       0    0    0    0     0       0       0
************************************************************************
RESOURCEAVAILABILITIES:
  R 1  R 2  R 3
   35   64   64
************************************************************************
RESOURCE LIMITS:
jobnr.  l(R 1)  u(R 1)  l(R 2)  u(R 2)  l(R 3)  u(R 3)
------------------------------------------------------------------------
  0        0       0       0       0       0       0
  1        7      13       5       9       2       4
  2        5       9       2       3       2       4
  3        6      11       3       5       4       8
  4        7      13       4       8       3       6
  5        6      12       1       2       5       9
  6        4       7       4       8       4       7
  7        8      15       4       7       5       9
  8        8      16       4       7       3       5
  9        9      16       2       4       1       2
 10        6      10       5      10       5       9
 11        0       0       0       0       0       0
************************************************************************
SCENARIOS:
------------------------------------------------------------------------
RESOURCE k = 1
s = 1: (0, 74, 9, 57, 22, 33, 12, 90, 30, 14, 32, 0)
s = 2: (0, 47, 6, 42, 26, 68, 14, 109, 35, 22, 34, 0)
s = 3: (0, 65, 11, 45, 34, 65, 11, 118, 42, 17, 32, 0)
s = 4: (0, 91, 10, 24, 36, 47, 8, 106, 20, 14, 26, 0)
s = 5: (0, 68, 7, 38, 34, 59, 9, 79, 49, 15, 31, 0)
s = 6: (0, 84, 12, 25, 19, 52, 20, 89, 21, 10, 38, 0)
s = 7: (0, 107, 10, 20, 26, 55, 20, 78, 35, 18, 42, 0)
s = 8: (0, 55, 7, 30, 15, 33, 15, 104, 24, 11, 43, 0)
s = 9: (0, 47, 11, 39, 22, 50, 12, 68, 28, 12, 61, 0)
s = 10: (0, 51, 9, 19, 35, 69, 12, 134, 37, 15, 46, 0)
s = 11: (0, 115, 9, 30, 21, 41, 15, 90, 24, 14, 68, 0)
s = 12: (0, 88, 13, 25, 24, 50, 15, 142, 19, 16, 26, 0)
s = 13: (0, 67, 10, 21, 28, 48, 22, 124, 30, 14, 41, 0)
s = 14: (0, 137, 7, 37, 28, 55, 14, 125, 22, 15, 40, 0)
s = 15: (0, 56, 7, 24, 16, 50, 10, 76, 35, 12, 50, 0)
s = 16: (0, 76, 8, 24, 22, 43, 25, 131, 27, 18, 43, 0)
s = 17: (0, 78, 8, 25, 33, 43, 19, 62, 33, 19, 31, 0)
s = 18: (0, 74, 9, 35, 24, 29, 11, 64, 36, 13, 52, 0)
s = 19: (0, 93, 7, 40, 14, 37, 19, 115, 20, 13, 30, 0)
s = 20: (0, 68, 9, 47, 35, 44, 11, 115, 39, 16, 28, 0)
s = 21: (0, 93, 9, 44, 39, 47, 15, 108, 31, 11, 72, 0)
s = 22: (0, 80, 9, 40, 31, 33, 8, 77, 38, 15, 32, 0)
s = 23: (0, 82, 8, 36, 26, 40, 12, 68, 33, 12, 52, 0)
s = 24: (0, 66, 11, 28, 17, 61, 15, 89, 35, 22, 69, 0)
s = 25: (0, 63, 8, 37, 32, 49, 19, 105, 20, 17, 49, 0)
s = 26: (0, 66, 16, 30, 33, 70, 23, 63, 37, 10, 55, 0)
s = 27: (0, 84, 8, 27, 24, 54, 22, 78, 43, 14, 37, 0)
s = 28: (0, 93, 9, 24, 42, 51, 11, 91, 29, 12, 57, 0)
s = 29: (0, 58, 11, 54, 33, 63, 22, 80, 20, 20, 35, 0)
s = 30: (0, 65, 14, 34, 17, 40, 14, 83, 47, 17, 41, 0)
s = 31: (0, 50, 8, 45, 19, 46, 11, 62, 41, 10, 34, 0)
s = 32: (0, 59, 7, 25, 22, 46, 18, 58, 32, 16, 38, 0)
s = 33: (0, 76, 7, 33, 26, 85, 9, 79, 28, 16, 64, 0)
s = 34: (0, 67, 15, 31, 24, 72, 10, 62, 43, 23, 52, 0)
s = 35: (0, 90, 9, 34, 17, 39, 12, 116, 26, 19, 22, 0)
s = 36: (0, 79, 10, 42, 42, 39, 15, 135, 59, 14, 46, 0)
s = 37: (0, 59, 11, 33, 32, 63, 11, 115, 28, 22, 46, 0)
s = 38: (0, 67, 8, 24, 22, 40, 12, 62, 43, 16, 45, 0)
s = 39: (0, 86, 9, 47, 29, 67, 18, 73, 32, 23, 58, 0)
s = 40: (0, 62, 8, 45, 20, 42, 21, 104, 34, 17, 34, 0)
s = 41: (0, 104, 11, 28, 25, 50, 22, 117, 26, 14, 53, 0)
s = 42: (0, 95, 14, 41, 34, 45, 14, 68, 31, 11, 33, 0)
s = 43: (0, 101, 9, 38, 37, 35, 15, 79, 40, 24, 61, 0)
s = 44: (0, 82, 11, 37, 25, 62, 12, 53, 28, 19, 41, 0)
s = 45: (0, 130, 9, 22, 22, 53, 11, 105, 20, 18, 51, 0)
s = 46: (0, 80, 10, 60, 19, 63, 11, 111, 33, 16, 35, 0)
s = 47: (0, 95, 9, 27, 30, 43, 19, 124, 46, 20, 27, 0)
s = 48: (0, 54, 10, 49, 17, 41, 14, 71, 29, 11, 25, 0)
s = 49: (0, 57, 17, 25, 37, 42, 13, 67, 42, 14, 37, 0)
s = 50: (0, 82, 14, 38, 24, 38, 11, 101, 38, 24, 34, 0)
s = 51: (0, 75, 9, 26, 31, 49, 13, 165, 22, 13, 50, 0)
s = 52: (0, 60, 13, 20, 28, 50, 11, 123, 36, 18, 36, 0)
s = 53: (0, 98, 8, 40, 22, 47, 9, 99, 43, 17, 39, 0)
s = 54: (0, 61, 6, 26, 22, 35, 15, 94, 47, 23, 32, 0)
s = 55: (0, 49, 7, 37, 20, 39, 14, 100, 28, 11, 48, 0)
s = 56: (0, 71, 6, 22, 41, 55, 9, 100, 34, 19, 27, 0)
s = 57: (0, 47, 11, 23, 19, 45, 15, 100, 28, 19, 56, 0)
s = 58: (0, 60, 14, 31, 18, 38, 22, 119, 30, 23, 47, 0)
s = 59: (0, 109, 10, 45, 16, 35, 17, 57, 30, 20, 48, 0)
s = 60: (0, 97, 12, 29, 41, 66, 11, 72, 48, 15, 31, 0)
s = 61: (0, 76, 6, 37, 20, 38, 13, 92, 30, 20, 30, 0)
s = 62: (0, 72, 6, 30, 30, 67, 13, 71, 37, 14, 45, 0)
s = 63: (0, 113, 10, 30, 14, 69, 18, 75, 31, 18, 29, 0)
s = 64: (0, 54, 6, 22, 21, 44, 10, 73, 27, 14, 25, 0)
s = 65: (0, 71, 11, 44, 30, 67, 11, 59, 43, 13, 57, 0)
s = 66: (0, 59, 6, 33, 27, 48, 16, 88, 36, 9, 31, 0)
s = 67: (0, 98, 7, 39, 33, 43, 22, 76, 31, 16, 29, 0)
s = 68: (0, 66, 10, 24, 18, 51, 17, 71, 28, 12, 34, 0)
s = 69: (0, 73, 12, 40, 19, 59, 14, 109, 25, 14, 37, 0)
s = 70: (0, 65, 8, 20, 25, 46, 17, 169, 29, 19, 56, 0)
s = 71: (0, 84, 6, 24, 37, 27, 12, 97, 25, 17, 28, 0)
s = 72: (0, 78, 11, 23, 34, 56, 14, 81, 25, 12, 26, 0)
s = 73: (0, 120, 8, 24, 23, 45, 12, 63, 26, 15, 63, 0)
s = 74: (0, 78, 10, 33, 27, 64, 11, 105, 27, 12, 37, 0)
s = 75: (0, 51, 9, 39, 28, 56, 13, 116, 30, 23, 30, 0)
s = 76: (0, 56, 10, 53, 33, 35, 13, 50, 32, 17, 53, 0)
s = 77: (0, 65, 9, 32, 18, 56, 11, 103, 40, 15, 50, 0)
s = 78: (0, 83, 7, 22, 23, 44, 11, 101, 47, 32, 30, 0)
s = 79: (0, 67, 11, 48, 16, 76, 13, 62, 28, 20, 48, 0)
s = 80: (0, 125, 5, 30, 24, 66, 13, 132, 27, 11, 29, 0)
s = 81: (0, 100, 12, 34, 22, 51, 13, 111, 31, 10, 24, 0)
s = 82: (0, 100, 13, 31, 23, 36, 12, 88, 42, 16, 35, 0)
s = 83: (0, 82, 8, 20, 20, 34, 10, 91, 37, 14, 59, 0)
s = 84: (0, 71, 8, 20, 21, 55, 11, 129, 34, 17, 26, 0)
s = 85: (0, 89, 6, 32, 30, 53, 16, 112, 24, 10, 58, 0)
s = 86: (0, 60, 7, 37, 32, 70, 13, 64, 32, 17, 30, 0)
s = 87: (0, 50, 7, 31, 18, 74, 12, 101, 43, 16, 25, 0)
s = 88: (0, 79, 8, 33, 36, 38, 14, 52, 28, 24, 31, 0)
s = 89: (0, 88, 12, 28, 25, 36, 20, 111, 34, 12, 64, 0)
s = 90: (0, 73, 11, 58, 20, 59, 12, 56, 31, 12, 64, 0)
s = 91: (0, 85, 9, 34, 22, 42, 8, 77, 31, 18, 29, 0)
s = 92: (0, 76, 10, 39, 29, 43, 10, 51, 30, 16, 43, 0)
s = 93: (0, 56, 13, 31, 24, 54, 13, 134, 25, 13, 56, 0)
s = 94: (0, 45, 7, 32, 21, 49, 18, 65, 35, 14, 24, 0)
s = 95: (0, 44, 10, 52, 17, 62, 17, 102, 39, 18, 32, 0)
s = 96: (0, 91, 11, 41, 25, 72, 9, 131, 31, 14, 44, 0)
s = 97: (0, 76, 9, 60, 22, 45, 22, 87, 43, 19, 41, 0)
s = 98: (0, 63, 8, 28, 24, 54, 18, 65, 44, 23, 51, 0)
s = 99: (0, 78, 11, 45, 23, 31, 17, 75, 24, 16, 43, 0)
s = 100: (0, 74, 8, 29, 24, 63, 9, 88, 17, 12, 48, 0)
s = 101: (0, 105, 9, 23, 28, 61, 18, 120, 30, 17, 47, 0)
s = 102: (0, 82, 9, 31, 22, 66, 18, 128, 34, 16, 43, 0)
s = 103: (0, 95, 7, 37, 23, 68, 11, 150, 47, 19, 52, 0)
s = 104: (0, 52, 9, 38, 16, 35, 14, 103, 30, 23, 32, 0)
s = 105: (0, 134, 7, 28, 23, 33, 15, 170, 21, 20, 44, 0)
s = 106: (0, 89, 11, 49, 38, 69, 18, 109, 22, 21, 60, 0)
s = 107: (0, 87, 13, 36, 23, 58, 13, 151, 34, 14, 23, 0)
s = 108: (0, 95, 8, 23, 20, 44, 21, 87, 21, 10, 36, 0)
s = 109: (0, 69, 7, 26, 30, 70, 10, 124, 45, 10, 57, 0)
s = 110: (0, 70, 8, 37, 28, 27, 12, 115, 24, 12, 32, 0)
s = 111: (0, 43, 9, 24, 29, 42, 16, 62, 36, 12, 26, 0)
s = 112: (0, 65, 10, 44, 26, 36, 12, 70, 45, 27, 42, 0)
s = 113: (0, 61, 6, 54, 16, 64, 20, 59, 24, 20, 57, 0)
s = 114: (0, 79, 11, 41, 25, 44, 18, 70, 21, 16, 74, 0)
s = 115: (0, 79, 10, 30, 29, 38, 9, 80, 43, 13, 50, 0)
s = 116: (0, 47, 6, 39, 23, 73, 9, 70, 21, 18, 33, 0)
s = 117: (0, 91, 9, 24, 19, 72, 12, 66, 34, 12, 40, 0)
s = 118: (0, 127, 9, 38, 34, 58, 13, 137, 32, 16, 65, 0)
s = 119: (0, 69, 10, 27, 19, 43, 17, 87, 44, 18, 44, 0)
s = 120: (0, 62, 9, 19, 38, 45, 16, 142, 34, 21, 53, 0)
s = 121: (0, 56, 10, 38, 18, 40, 12, 192, 51, 29, 33, 0)
s = 122: (0, 76, 9, 28, 19, 31, 19, 77, 32, 10, 41, 0)
s = 123: (0, 66, 8, 45, 20, 34, 18, 60, 45, 17, 46, 0)
s = 124: (0, 46, 9, 17, 15, 42, 12, 110, 27, 16, 43, 0)
s = 125: (0, 100, 9, 45, 28, 67, 8, 82, 26, 20, 45, 0)
s = 126: (0, 54, 10, 35, 25, 62, 12, 146, 22, 18, 32, 0)
s = 127: (0, 97, 9, 31, 23, 46, 17, 118, 28, 9, 55, 0)
s = 128: (0, 92, 13, 39, 21, 67, 9, 88, 48, 16, 39, 0)
s = 129: (0, 68, 8, 23, 24, 72, 11, 89, 42, 14, 24, 0)
s = 130: (0, 54, 7, 27, 22, 77, 15, 47, 29, 11, 52, 0)
s = 131: (0, 48, 11, 33, 29, 50, 9, 61, 40, 11, 45, 0)
s = 132: (0, 114, 12, 29, 22, 59, 15, 67, 37, 20, 36, 0)
s = 133: (0, 64, 9, 35, 30, 41, 22, 133, 29, 16, 42, 0)
s = 134: (0, 79, 8, 20, 38, 69, 15, 110, 40, 16, 57, 0)
s = 135: (0, 46, 8, 23, 23, 43, 21, 102, 32, 16, 34, 0)
s = 136: (0, 77, 6, 41, 16, 35, 11, 80, 27, 21, 60, 0)
s = 137: (0, 76, 12, 22, 26, 47, 21, 89, 22, 10, 52, 0)
s = 138: (0, 83, 7, 38, 24, 36, 13, 73, 27, 11, 48, 0)
s = 139: (0, 55, 5, 30, 32, 27, 11, 64, 37, 12, 47, 0)
s = 140: (0, 112, 10, 21, 39, 61, 21, 111, 33, 15, 34, 0)
s = 141: (0, 87, 6, 33, 42, 60, 15, 104, 38, 16, 33, 0)
s = 142: (0, 89, 8, 31, 25, 36, 14, 58, 24, 21, 47, 0)
s = 143: (0, 67, 6, 30, 17, 55, 16, 85, 37, 10, 27, 0)
s = 144: (0, 51, 12, 33, 15, 48, 10, 100, 22, 12, 45, 0)
s = 145: (0, 77, 8, 44, 41, 37, 17, 130, 40, 17, 55, 0)
s = 146: (0, 72, 10, 23, 18, 38, 17, 70, 21, 18, 36, 0)
s = 147: (0, 80, 10, 53, 35, 44, 12, 149, 41, 22, 39, 0)
s = 148: (0, 97, 7, 27, 39, 56, 11, 119, 26, 15, 61, 0)
s = 149: (0, 80, 9, 42, 20, 41, 11, 92, 38, 22, 62, 0)
s = 150: (0, 88, 7, 39, 22, 48, 10, 65, 23, 16, 40, 0)
s = 151: (0, 71, 9, 36, 16, 70, 19, 56, 22, 15, 49, 0)
s = 152: (0, 44, 7, 36, 25, 38, 16, 94, 25, 20, 55, 0)
s = 153: (0, 126, 12, 33, 20, 39, 26, 82, 31, 12, 44, 0)
s = 154: (0, 98, 13, 29, 23, 58, 14, 78, 21, 13, 35, 0)
s = 155: (0, 81, 10, 32, 29, 55, 20, 116, 50, 12, 40, 0)
s = 156: (0, 51, 6, 33, 19, 49, 16, 105, 48, 22, 41, 0)
s = 157: (0, 54, 8, 50, 25, 58, 9, 74, 20, 10, 31, 0)
s = 158: (0, 90, 9, 56, 30, 40, 11, 79, 49, 21, 46, 0)
s = 159: (0, 89, 6, 41, 33, 43, 16, 99, 38, 11, 28, 0)
s = 160: (0, 107, 6, 23, 18, 47, 17, 77, 18, 24, 26, 0)
s = 161: (0, 60, 12, 23, 26, 52, 11, 73, 39, 27, 63, 0)
s = 162: (0, 45, 14, 48, 22, 37, 10, 104, 40, 10, 55, 0)
s = 163: (0, 85, 9, 31, 24, 57, 13, 113, 33, 22, 35, 0)
s = 164: (0, 72, 6, 25, 16, 56, 13, 53, 30, 23, 36, 0)
s = 165: (0, 45, 7, 38, 35, 39, 26, 79, 18, 15, 60, 0)
s = 166: (0, 141, 7, 20, 38, 55, 13, 96, 52, 15, 52, 0)
s = 167: (0, 51, 8, 30, 35, 49, 23, 108, 21, 20, 44, 0)
s = 168: (0, 80, 8, 30, 23, 44, 18, 118, 35, 11, 32, 0)
s = 169: (0, 87, 8, 36, 24, 54, 9, 94, 27, 18, 57, 0)
s = 170: (0, 63, 8, 32, 29, 59, 14, 59, 34, 14, 35, 0)
s = 171: (0, 74, 10, 22, 25, 48, 19, 102, 27, 16, 46, 0)
s = 172: (0, 66, 10, 52, 16, 38, 12, 146, 39, 23, 44, 0)
s = 173: (0, 49, 13, 45, 26, 32, 14, 74, 39, 9, 29, 0)
s = 174: (0, 96, 8, 25, 22, 61, 18, 115, 27, 11, 26, 0)
s = 175: (0, 63, 8, 27, 28, 47, 20, 109, 33, 13, 30, 0)
s = 176: (0, 73, 6, 42, 23, 57, 18, 80, 30, 11, 34, 0)
s = 177: (0, 120, 10, 35, 35, 33, 8, 90, 34, 19, 29, 0)
s = 178: (0, 84, 14, 27, 35, 45, 24, 85, 27, 25, 45, 0)
s = 179: (0, 75, 6, 33, 24, 50, 20, 158, 32, 18, 45, 0)
s = 180: (0, 71, 14, 42, 34, 37, 10, 77, 29, 14, 64, 0)
s = 181: (0, 89, 11, 43, 21, 61, 12, 97, 34, 15, 44, 0)
s = 182: (0, 76, 10, 29, 18, 79, 18, 74, 32, 27, 47, 0)
s = 183: (0, 56, 15, 44, 32, 46, 10, 102, 30, 25, 35, 0)
s = 184: (0, 113, 7, 36, 29, 78, 11, 68, 43, 15, 45, 0)
s = 185: (0, 127, 14, 23, 20, 52, 19, 51, 40, 18, 29, 0)
s = 186: (0, 77, 6, 21, 30, 37, 20, 71, 25, 15, 44, 0)
s = 187: (0, 70, 11, 21, 32, 45, 14, 76, 19, 18, 51, 0)
s = 188: (0, 110, 8, 54, 39, 51, 14, 75, 22, 18, 61, 0)
s = 189: (0, 88, 13, 36, 18, 73, 10, 88, 27, 28, 33, 0)
s = 190: (0, 72, 16, 36, 19, 45, 18, 102, 36, 16, 28, 0)
s = 191: (0, 69, 9, 28, 41, 50, 11, 77, 26, 15, 54, 0)
s = 192: (0, 59, 9, 28, 20, 50, 13, 81, 26, 18, 30, 0)
s = 193: (0, 76, 7, 22, 23, 36, 17, 75, 22, 18, 37, 0)
s = 194: (0, 52, 6, 33, 18, 36, 22, 98, 22, 17, 34, 0)
s = 195: (0, 78, 17, 25, 26, 41, 15, 127, 29, 14, 54, 0)
s = 196: (0, 128, 11, 33, 36, 48, 10, 74, 28, 12, 47, 0)
s = 197: (0, 73, 10, 28, 21, 35, 11, 78, 35, 16, 65, 0)
s = 198: (0, 81, 9, 17, 20, 35, 24, 63, 47, 18, 60, 0)
s = 199: (0, 76, 15, 41, 44, 50, 11, 67, 52, 16, 26, 0)
s = 200: (0, 98, 7, 26, 35, 37, 13, 67, 32, 19, 45, 0)
------------------------------------------------------------------------
RESOURCE k = 2
s = 1: (0, 52, 3, 26, 14, 6, 14, 42, 13, 4, 32, 0)
s = 2: (0, 33, 2, 20, 16, 12, 16, 51, 16, 6, 34, 0)
s = 3: (0, 45, 4, 21, 21, 11, 13, 55, 19, 5, 32, 0)
s = 4: (0, 63, 4, 11, 22, 8, 9, 50, 9, 4, 26, 0)
s = 5: (0, 48, 3, 18, 21, 10, 11, 37, 22, 4, 31, 0)
s = 6: (0, 58, 4, 12, 12, 9, 23, 42, 9, 3, 38, 0)
s = 7: (0, 74, 4, 9, 16, 10, 22, 37, 16, 5, 42, 0)
s = 8: (0, 38, 3, 14, 10, 6, 17, 49, 11, 3, 43, 0)
s = 9: (0, 32, 4, 18, 14, 9, 14, 32, 13, 3, 61, 0)
s = 10: (0, 36, 3, 9, 21, 12, 13, 63, 17, 4, 46, 0)
s = 11: (0, 80, 3, 14, 13, 7, 17, 42, 11, 4, 68, 0)
s = 12: (0, 61, 5, 12, 15, 9, 17, 67, 8, 4, 26, 0)
s = 13: (0, 46, 4, 10, 18, 8, 25, 58, 14, 4, 41, 0)
s = 14: (0, 95, 3, 17, 17, 10, 16, 59, 10, 4, 40, 0)
s = 15: (0, 39, 3, 11, 10, 9, 11, 36, 16, 3, 50, 0)
s = 16: (0, 53, 3, 11, 14, 8, 28, 61, 12, 5, 43, 0)
s = 17: (0, 54, 3, 12, 20, 8, 21, 29, 15, 5, 31, 0)
s = 18: (0, 51, 3, 16, 15, 5, 12, 30, 16, 4, 52, 0)
s = 19: (0, 65, 3, 18, 9, 7, 22, 54, 9, 4, 30, 0)
s = 20: (0, 47, 3, 22, 22, 8, 12, 54, 17, 4, 28, 0)
s = 21: (0, 64, 3, 20, 24, 8, 17, 50, 14, 3, 72, 0)
s = 22: (0, 56, 3, 19, 19, 6, 9, 36, 17, 4, 32, 0)
s = 23: (0, 57, 3, 17, 16, 7, 14, 32, 15, 3, 52, 0)
s = 24: (0, 46, 4, 13, 11, 11, 17, 42, 15, 6, 69, 0)
s = 25: (0, 44, 3, 17, 20, 9, 22, 49, 9, 5, 49, 0)
s = 26: (0, 46, 6, 14, 20, 12, 26, 30, 16, 3, 55, 0)
s = 27: (0, 58, 3, 13, 15, 9, 25, 37, 19, 4, 37, 0)
s = 28: (0, 64, 3, 11, 26, 9, 12, 43, 13, 3, 57, 0)
s = 29: (0, 40, 4, 25, 20, 11, 25, 38, 9, 5, 35, 0)
s = 30: (0, 45, 5, 16, 11, 7, 15, 39, 21, 5, 41, 0)
s = 31: (0, 35, 3, 21, 12, 8, 13, 29, 18, 3, 34, 0)
s = 32: (0, 41, 3, 12, 14, 8, 20, 27, 14, 4, 38, 0)
s = 33: (0, 52, 3, 15, 16, 15, 10, 37, 12, 4, 64, 0)
s = 34: (0, 46, 5, 14, 15, 12, 12, 29, 19, 6, 52, 0)
s = 35: (0, 62, 3, 16, 11, 7, 13, 54, 12, 5, 22, 0)
s = 36: (0, 55, 4, 19, 26, 7, 17, 63, 26, 4, 46, 0)
s = 37: (0, 41, 4, 15, 20, 11, 13, 54, 13, 6, 46, 0)
s = 38: (0, 47, 3, 11, 14, 7, 14, 29, 19, 4, 45, 0)
s = 39: (0, 60, 3, 22, 18, 12, 20, 34, 14, 6, 58, 0)
s = 40: (0, 43, 3, 21, 13, 7, 24, 49, 15, 5, 34, 0)
s = 41: (0, 72, 4, 13, 16, 9, 25, 55, 12, 4, 53, 0)
s = 42: (0, 66, 5, 19, 21, 8, 16, 32, 14, 3, 33, 0)
s = 43: (0, 70, 3, 17, 23, 6, 17, 37, 18, 6, 61, 0)
s = 44: (0, 57, 4, 17, 16, 11, 13, 25, 12, 5, 41, 0)
s = 45: (0, 90, 3, 10, 14, 9, 13, 49, 9, 5, 51, 0)
s = 46: (0, 56, 4, 28, 12, 11, 12, 52, 15, 4, 35, 0)
s = 47: (0, 66, 3, 13, 19, 8, 21, 58, 21, 5, 27, 0)
s = 48: (0, 37, 4, 23, 11, 7, 16, 33, 13, 3, 25, 0)
s = 49: (0, 40, 6, 12, 23, 7, 15, 31, 19, 4, 37, 0)
s = 50: (0, 57, 5, 17, 15, 7, 13, 48, 17, 6, 34, 0)
s = 51: (0, 52, 3, 12, 19, 9, 15, 77, 10, 4, 50, 0)
s = 52: (0, 42, 5, 10, 17, 9, 13, 58, 16, 5, 36, 0)
s = 53: (0, 68, 3, 19, 14, 8, 10, 47, 19, 5, 39, 0)
s = 54: (0, 43, 2, 12, 14, 6, 17, 44, 21, 6, 32, 0)
s = 55: (0, 34, 3, 17, 13, 7, 16, 47, 12, 3, 48, 0)
s = 56: (0, 49, 2, 10, 26, 10, 10, 47, 15, 5, 27, 0)
s = 57: (0, 33, 4, 11, 12, 8, 18, 47, 13, 5, 56, 0)
s = 58: (0, 42, 5, 15, 11, 7, 25, 56, 13, 6, 47, 0)
s = 59: (0, 76, 4, 21, 10, 6, 19, 27, 14, 5, 48, 0)
s = 60: (0, 67, 4, 14, 26, 11, 13, 34, 21, 4, 31, 0)
s = 61: (0, 53, 2, 17, 12, 7, 15, 43, 13, 5, 30, 0)
s = 62: (0, 50, 2, 14, 19, 12, 15, 34, 16, 4, 45, 0)
s = 63: (0, 79, 4, 14, 9, 12, 20, 35, 14, 5, 29, 0)
s = 64: (0, 38, 2, 10, 13, 8, 11, 35, 12, 4, 25, 0)
s = 65: (0, 50, 4, 20, 19, 12, 13, 28, 19, 4, 57, 0)
s = 66: (0, 41, 2, 15, 17, 8, 18, 42, 16, 3, 31, 0)
s = 67: (0, 68, 3, 18, 20, 8, 25, 36, 14, 4, 29, 0)
s = 68: (0, 46, 4, 11, 12, 9, 20, 34, 12, 3, 34, 0)
s = 69: (0, 50, 4, 19, 12, 10, 16, 51, 11, 4, 37, 0)
s = 70: (0, 45, 3, 9, 15, 8, 19, 79, 13, 5, 56, 0)
s = 71: (0, 58, 2, 11, 23, 5, 14, 45, 11, 5, 28, 0)
s = 72: (0, 54, 4, 11, 21, 10, 16, 38, 11, 3, 26, 0)
s = 73: (0, 83, 3, 11, 14, 8, 13, 30, 11, 4, 63, 0)
s = 74: (0, 54, 4, 15, 17, 11, 13, 49, 12, 3, 37, 0)
s = 75: (0, 35, 3, 18, 18, 10, 15, 54, 13, 6, 30, 0)
s = 76: (0, 39, 4, 24, 21, 6, 15, 24, 14, 5, 53, 0)
s = 77: (0, 45, 3, 15, 11, 10, 13, 48, 18, 4, 50, 0)
s = 78: (0, 58, 3, 10, 15, 8, 12, 47, 21, 8, 30, 0)
s = 79: (0, 47, 4, 22, 10, 13, 15, 29, 12, 5, 48, 0)
s = 80: (0, 87, 2, 14, 15, 11, 15, 62, 12, 3, 29, 0)
s = 81: (0, 69, 4, 16, 14, 9, 15, 52, 14, 3, 24, 0)
s = 82: (0, 69, 5, 15, 14, 6, 13, 41, 19, 4, 35, 0)
s = 83: (0, 57, 3, 10, 12, 6, 12, 43, 16, 4, 59, 0)
s = 84: (0, 49, 3, 9, 13, 10, 13, 60, 15, 5, 26, 0)
s = 85: (0, 62, 2, 15, 19, 9, 18, 52, 11, 3, 58, 0)
s = 86: (0, 41, 3, 17, 20, 12, 15, 30, 14, 5, 30, 0)
s = 87: (0, 35, 3, 14, 11, 13, 14, 47, 19, 4, 25, 0)
s = 88: (0, 55, 3, 15, 22, 7, 16, 25, 12, 6, 31, 0)
s = 89: (0, 61, 4, 13, 15, 6, 23, 52, 15, 3, 64, 0)
s = 90: (0, 51, 4, 27, 13, 10, 13, 26, 14, 3, 64, 0)
s = 91: (0, 59, 3, 16, 13, 7, 9, 36, 14, 5, 29, 0)
s = 92: (0, 53, 4, 18, 18, 8, 12, 24, 13, 4, 43, 0)
s = 93: (0, 39, 5, 14, 15, 9, 15, 63, 11, 4, 56, 0)
s = 94: (0, 31, 3, 15, 13, 9, 21, 30, 16, 4, 24, 0)
s = 95: (0, 31, 4, 24, 11, 11, 19, 48, 17, 5, 32, 0)
s = 96: (0, 63, 4, 19, 15, 12, 10, 62, 14, 4, 44, 0)
s = 97: (0, 53, 3, 28, 14, 8, 25, 41, 19, 5, 41, 0)
s = 98: (0, 44, 3, 13, 15, 9, 21, 30, 20, 6, 51, 0)
s = 99: (0, 54, 4, 21, 14, 6, 19, 35, 11, 4, 43, 0)
s = 100: (0, 51, 3, 13, 15, 11, 11, 42, 8, 3, 48, 0)
s = 101: (0, 73, 3, 11, 18, 11, 20, 56, 13, 5, 47, 0)
s = 102: (0, 57, 3, 14, 14, 11, 20, 60, 15, 4, 43, 0)
s = 103: (0, 66, 3, 17, 14, 12, 12, 70, 21, 5, 52, 0)
s = 104: (0, 36, 3, 17, 10, 6, 16, 48, 13, 6, 32, 0)
s = 105: (0, 93, 3, 13, 14, 6, 17, 80, 10, 5, 44, 0)
s = 106: (0, 62, 4, 22, 24, 12, 21, 51, 10, 6, 60, 0)
s = 107: (0, 60, 5, 17, 15, 10, 15, 71, 15, 4, 23, 0)
s = 108: (0, 66, 3, 11, 13, 8, 23, 41, 10, 3, 36, 0)
s = 109: (0, 48, 3, 12, 19, 12, 11, 58, 20, 3, 57, 0)
s = 110: (0, 48, 3, 17, 17, 5, 14, 54, 11, 3, 32, 0)
s = 111: (0, 30, 3, 11, 18, 7, 18, 29, 16, 3, 26, 0)
s = 112: (0, 45, 4, 20, 16, 6, 13, 33, 20, 7, 42, 0)
s = 113: (0, 43, 2, 25, 10, 11, 23, 28, 11, 5, 57, 0)
s = 114: (0, 55, 4, 19, 15, 8, 21, 33, 9, 4, 74, 0)
s = 115: (0, 55, 4, 14, 18, 7, 10, 37, 19, 4, 50, 0)
s = 116: (0, 33, 2, 18, 14, 13, 10, 33, 9, 5, 33, 0)
s = 117: (0, 63, 3, 11, 12, 12, 14, 31, 15, 3, 40, 0)
s = 118: (0, 88, 3, 17, 21, 10, 15, 64, 14, 4, 65, 0)
s = 119: (0, 48, 4, 12, 12, 8, 20, 41, 20, 5, 44, 0)
s = 120: (0, 43, 3, 9, 24, 8, 19, 66, 15, 6, 53, 0)
s = 121: (0, 39, 4, 18, 11, 7, 14, 90, 22, 8, 33, 0)
s = 122: (0, 53, 3, 13, 12, 6, 22, 36, 14, 3, 41, 0)
s = 123: (0, 46, 3, 21, 12, 6, 21, 28, 20, 5, 46, 0)
s = 124: (0, 32, 3, 8, 10, 7, 13, 52, 12, 4, 43, 0)
s = 125: (0, 70, 3, 21, 18, 12, 9, 39, 12, 5, 45, 0)
s = 126: (0, 37, 4, 16, 16, 11, 14, 68, 10, 5, 32, 0)
s = 127: (0, 68, 3, 15, 14, 8, 20, 55, 13, 3, 55, 0)
s = 128: (0, 64, 5, 18, 13, 12, 10, 41, 21, 4, 39, 0)
s = 129: (0, 47, 3, 11, 15, 12, 12, 42, 19, 4, 24, 0)
s = 130: (0, 37, 3, 13, 14, 13, 17, 22, 13, 3, 52, 0)
s = 131: (0, 34, 4, 15, 18, 9, 10, 29, 18, 3, 45, 0)
s = 132: (0, 79, 4, 13, 14, 10, 17, 32, 16, 5, 36, 0)
s = 133: (0, 45, 3, 16, 19, 7, 25, 62, 13, 4, 42, 0)
s = 134: (0, 55, 3, 9, 24, 12, 17, 52, 18, 4, 57, 0)
s = 135: (0, 32, 3, 11, 15, 8, 24, 48, 14, 4, 34, 0)
s = 136: (0, 53, 2, 19, 10, 6, 12, 37, 12, 6, 60, 0)
s = 137: (0, 52, 4, 10, 16, 8, 24, 42, 10, 3, 52, 0)
s = 138: (0, 57, 3, 18, 15, 6, 15, 34, 12, 3, 48, 0)
s = 139: (0, 38, 2, 14, 20, 5, 13, 30, 16, 3, 47, 0)
s = 140: (0, 78, 4, 10, 24, 11, 24, 52, 15, 4, 34, 0)
s = 141: (0, 61, 2, 15, 26, 10, 17, 49, 17, 4, 33, 0)
s = 142: (0, 62, 3, 14, 16, 6, 16, 27, 11, 6, 47, 0)
s = 143: (0, 47, 2, 14, 11, 10, 18, 40, 16, 3, 27, 0)
s = 144: (0, 35, 4, 15, 9, 8, 11, 47, 10, 3, 45, 0)
s = 145: (0, 53, 3, 20, 25, 7, 20, 61, 18, 5, 55, 0)
s = 146: (0, 50, 4, 11, 11, 7, 20, 33, 9, 5, 36, 0)
s = 147: (0, 55, 4, 24, 22, 8, 14, 70, 18, 6, 39, 0)
s = 148: (0, 67, 3, 13, 24, 10, 12, 56, 12, 4, 61, 0)
s = 149: (0, 55, 3, 19, 12, 7, 12, 43, 17, 6, 62, 0)
s = 150: (0, 61, 3, 18, 14, 8, 12, 31, 10, 4, 40, 0)
s = 151: (0, 49, 3, 17, 10, 12, 22, 27, 10, 4, 49, 0)
s = 152: (0, 31, 3, 17, 15, 7, 18, 44, 11, 5, 55, 0)
s = 153: (0, 88, 4, 15, 13, 7, 29, 39, 14, 3, 44, 0)
s = 154: (0, 68, 5, 13, 14, 10, 16, 37, 9, 4, 35, 0)
s = 155: (0, 56, 4, 15, 18, 10, 23, 54, 22, 3, 40, 0)
s = 156: (0, 36, 2, 15, 12, 9, 19, 49, 21, 6, 41, 0)
s = 157: (0, 38, 3, 23, 15, 10, 10, 35, 9, 3, 31, 0)
s = 158: (0, 62, 3, 26, 19, 7, 13, 37, 22, 6, 46, 0)
s = 159: (0, 62, 2, 19, 21, 8, 18, 47, 17, 3, 28, 0)
s = 160: (0, 74, 2, 11, 11, 8, 20, 36, 8, 6, 26, 0)
s = 161: (0, 42, 4, 11, 16, 9, 13, 34, 17, 7, 63, 0)
s = 162: (0, 31, 5, 22, 14, 7, 12, 49, 18, 3, 55, 0)
s = 163: (0, 59, 3, 15, 15, 10, 14, 53, 15, 6, 35, 0)
s = 164: (0, 50, 2, 12, 10, 10, 15, 25, 13, 6, 36, 0)
s = 165: (0, 32, 3, 18, 22, 7, 29, 37, 8, 4, 60, 0)
s = 166: (0, 98, 3, 9, 24, 10, 15, 45, 23, 4, 52, 0)
s = 167: (0, 35, 3, 14, 21, 9, 27, 51, 10, 5, 44, 0)
s = 168: (0, 55, 3, 14, 14, 8, 20, 55, 16, 3, 32, 0)
s = 169: (0, 60, 3, 17, 15, 9, 11, 44, 12, 5, 57, 0)
s = 170: (0, 44, 3, 15, 18, 10, 16, 28, 15, 4, 35, 0)
s = 171: (0, 51, 4, 10, 15, 8, 22, 48, 12, 4, 46, 0)
s = 172: (0, 46, 4, 24, 10, 7, 14, 68, 17, 6, 44, 0)
s = 173: (0, 34, 5, 21, 16, 6, 16, 35, 17, 3, 29, 0)
s = 174: (0, 67, 3, 12, 14, 11, 20, 54, 12, 3, 26, 0)
s = 175: (0, 43, 3, 13, 18, 8, 22, 51, 15, 4, 30, 0)
s = 176: (0, 51, 2, 19, 14, 10, 21, 38, 13, 3, 34, 0)
s = 177: (0, 83, 4, 16, 22, 6, 9, 42, 15, 5, 29, 0)
s = 178: (0, 58, 5, 13, 22, 8, 27, 40, 12, 7, 45, 0)
s = 179: (0, 52, 2, 15, 15, 9, 23, 74, 14, 5, 45, 0)
s = 180: (0, 49, 5, 19, 21, 7, 11, 36, 13, 4, 64, 0)
s = 181: (0, 62, 4, 20, 13, 11, 13, 46, 15, 4, 44, 0)
s = 182: (0, 53, 4, 13, 11, 14, 20, 35, 14, 7, 47, 0)
s = 183: (0, 39, 5, 20, 20, 8, 12, 48, 14, 7, 35, 0)
s = 184: (0, 79, 3, 16, 18, 13, 13, 32, 19, 4, 45, 0)
s = 185: (0, 88, 5, 11, 13, 9, 22, 24, 18, 5, 29, 0)
s = 186: (0, 53, 2, 10, 18, 7, 23, 34, 11, 4, 44, 0)
s = 187: (0, 49, 4, 10, 20, 8, 16, 36, 9, 5, 51, 0)
s = 188: (0, 76, 3, 25, 24, 9, 16, 35, 10, 5, 61, 0)
s = 189: (0, 61, 5, 17, 11, 13, 12, 41, 12, 7, 33, 0)
s = 190: (0, 50, 6, 17, 12, 8, 21, 48, 16, 4, 28, 0)
s = 191: (0, 48, 3, 13, 26, 9, 13, 36, 12, 4, 54, 0)
s = 192: (0, 41, 3, 13, 12, 9, 15, 38, 12, 5, 30, 0)
s = 193: (0, 53, 3, 10, 14, 6, 19, 35, 10, 5, 37, 0)
s = 194: (0, 36, 2, 15, 12, 6, 25, 46, 10, 5, 34, 0)
s = 195: (0, 54, 6, 12, 16, 7, 17, 59, 13, 4, 54, 0)
s = 196: (0, 89, 4, 15, 22, 8, 12, 35, 13, 3, 47, 0)
s = 197: (0, 51, 4, 13, 13, 6, 13, 37, 16, 4, 65, 0)
s = 198: (0, 56, 3, 8, 13, 6, 28, 30, 21, 5, 60, 0)
s = 199: (0, 52, 5, 19, 27, 9, 12, 31, 23, 4, 26, 0)
s = 200: (0, 68, 3, 12, 22, 7, 14, 32, 14, 5, 45, 0)
------------------------------------------------------------------------
RESOURCE k = 3
s = 1: (0, 23, 4, 41, 10, 25, 12, 54, 10, 2, 29, 0)
s = 2: (0, 15, 3, 31, 12, 51, 14, 65, 11, 3, 31, 0)
s = 3: (0, 20, 5, 33, 16, 49, 11, 71, 13, 3, 29, 0)
s = 4: (0, 28, 5, 17, 17, 35, 8, 64, 6, 2, 24, 0)
s = 5: (0, 21, 3, 28, 16, 45, 9, 48, 16, 2, 28, 0)
s = 6: (0, 26, 6, 18, 9, 39, 20, 54, 7, 2, 35, 0)
s = 7: (0, 33, 5, 15, 12, 41, 20, 47, 11, 3, 38, 0)
s = 8: (0, 17, 3, 22, 7, 25, 15, 62, 8, 2, 39, 0)
s = 9: (0, 15, 5, 29, 10, 37, 12, 41, 9, 2, 55, 0)
s = 10: (0, 16, 4, 14, 16, 52, 12, 80, 12, 2, 42, 0)
s = 11: (0, 36, 4, 22, 10, 31, 15, 54, 8, 2, 62, 0)
s = 12: (0, 27, 6, 19, 12, 38, 15, 85, 6, 2, 24, 0)
s = 13: (0, 21, 5, 15, 13, 36, 22, 74, 10, 2, 37, 0)
s = 14: (0, 42, 3, 27, 13, 41, 14, 75, 7, 2, 36, 0)
s = 15: (0, 17, 3, 18, 8, 37, 10, 46, 11, 2, 45, 0)
s = 16: (0, 24, 4, 18, 10, 32, 25, 79, 9, 3, 39, 0)
s = 17: (0, 24, 4, 18, 15, 32, 19, 37, 11, 3, 28, 0)
s = 18: (0, 23, 4, 26, 11, 22, 11, 39, 12, 2, 47, 0)
s = 19: (0, 29, 3, 29, 7, 28, 19, 69, 7, 2, 27, 0)
s = 20: (0, 21, 4, 35, 16, 33, 11, 69, 12, 2, 25, 0)
s = 21: (0, 29, 4, 32, 18, 35, 15, 65, 10, 2, 65, 0)
s = 22: (0, 25, 4, 29, 15, 25, 8, 46, 12, 2, 29, 0)
s = 23: (0, 26, 4, 26, 12, 30, 12, 41, 11, 2, 47, 0)
s = 24: (0, 21, 5, 20, 8, 46, 15, 53, 11, 3, 62, 0)
s = 25: (0, 20, 4, 27, 15, 37, 19, 63, 7, 3, 44, 0)
s = 26: (0, 21, 7, 22, 15, 53, 23, 38, 12, 2, 50, 0)
s = 27: (0, 26, 4, 20, 11, 41, 22, 47, 14, 2, 33, 0)
s = 28: (0, 29, 4, 18, 19, 38, 11, 55, 9, 2, 51, 0)
s = 29: (0, 18, 5, 40, 15, 48, 22, 48, 7, 3, 31, 0)
s = 30: (0, 20, 6, 25, 8, 30, 14, 50, 15, 3, 37, 0)
s = 31: (0, 16, 4, 33, 9, 35, 11, 38, 13, 2, 31, 0)
s = 32: (0, 19, 4, 18, 11, 35, 18, 35, 10, 2, 34, 0)
s = 33: (0, 24, 3, 24, 12, 64, 9, 47, 9, 2, 58, 0)
s = 34: (0, 21, 7, 22, 11, 54, 10, 37, 14, 3, 47, 0)
s = 35: (0, 28, 4, 25, 8, 30, 12, 70, 8, 3, 20, 0)
s = 36: (0, 25, 5, 31, 20, 30, 15, 81, 19, 2, 42, 0)
s = 37: (0, 19, 5, 24, 15, 48, 11, 69, 9, 3, 41, 0)
s = 38: (0, 21, 4, 17, 10, 30, 12, 37, 14, 2, 40, 0)
s = 39: (0, 27, 4, 34, 14, 50, 18, 44, 10, 3, 52, 0)
s = 40: (0, 20, 4, 33, 10, 32, 21, 63, 11, 3, 31, 0)
s = 41: (0, 32, 5, 20, 12, 38, 22, 71, 9, 2, 48, 0)
s = 42: (0, 29, 6, 30, 16, 34, 14, 41, 10, 2, 30, 0)
s = 43: (0, 31, 4, 27, 17, 26, 15, 48, 13, 3, 55, 0)
s = 44: (0, 25, 5, 27, 12, 47, 12, 32, 9, 3, 37, 0)
s = 45: (0, 40, 4, 16, 10, 40, 11, 63, 7, 3, 46, 0)
s = 46: (0, 25, 5, 44, 9, 47, 11, 67, 11, 2, 32, 0)
s = 47: (0, 29, 4, 20, 14, 32, 19, 74, 15, 3, 25, 0)
s = 48: (0, 17, 5, 36, 8, 31, 14, 43, 9, 2, 23, 0)
s = 49: (0, 18, 8, 18, 17, 31, 13, 40, 14, 2, 33, 0)
s = 50: (0, 25, 6, 28, 11, 29, 11, 61, 12, 3, 31, 0)
s = 51: (0, 23, 4, 19, 15, 37, 13, 99, 7, 2, 45, 0)
s = 52: (0, 19, 6, 15, 13, 38, 11, 74, 12, 3, 32, 0)
s = 53: (0, 30, 4, 29, 11, 35, 9, 60, 14, 3, 35, 0)
s = 54: (0, 19, 3, 19, 10, 26, 15, 57, 15, 3, 29, 0)
s = 55: (0, 15, 3, 27, 10, 30, 14, 60, 9, 2, 43, 0)
s = 56: (0, 22, 3, 16, 19, 42, 9, 60, 11, 3, 24, 0)
s = 57: (0, 15, 5, 17, 9, 34, 15, 60, 9, 3, 50, 0)
s = 58: (0, 19, 7, 23, 9, 29, 22, 72, 10, 3, 42, 0)
s = 59: (0, 34, 5, 33, 8, 26, 17, 34, 10, 3, 44, 0)
s = 60: (0, 30, 6, 21, 19, 49, 11, 44, 15, 2, 28, 0)
s = 61: (0, 24, 3, 27, 9, 28, 13, 56, 10, 3, 27, 0)
s = 62: (0, 22, 3, 22, 14, 50, 13, 43, 12, 2, 40, 0)
s = 63: (0, 35, 5, 22, 7, 52, 18, 45, 10, 3, 26, 0)
s = 64: (0, 17, 3, 16, 10, 33, 10, 44, 9, 2, 23, 0)
s = 65: (0, 22, 5, 32, 14, 50, 11, 36, 14, 2, 51, 0)
s = 66: (0, 19, 3, 24, 13, 36, 16, 53, 12, 2, 28, 0)
s = 67: (0, 30, 3, 29, 15, 32, 22, 46, 10, 2, 26, 0)
s = 68: (0, 21, 5, 17, 9, 38, 17, 43, 9, 2, 31, 0)
s = 69: (0, 23, 5, 30, 9, 44, 14, 66, 8, 2, 34, 0)
s = 70: (0, 20, 4, 14, 12, 34, 17, 102, 9, 3, 50, 0)
s = 71: (0, 26, 3, 18, 17, 21, 12, 58, 8, 3, 26, 0)
s = 72: (0, 24, 5, 17, 16, 42, 14, 49, 8, 2, 23, 0)
s = 73: (0, 37, 4, 18, 11, 34, 12, 38, 8, 2, 57, 0)
s = 74: (0, 24, 5, 24, 13, 48, 11, 63, 9, 2, 33, 0)
s = 75: (0, 16, 4, 28, 13, 42, 13, 70, 10, 3, 27, 0)
s = 76: (0, 18, 5, 38, 16, 26, 13, 30, 10, 3, 48, 0)
s = 77: (0, 20, 4, 23, 8, 42, 11, 62, 13, 2, 45, 0)
s = 78: (0, 26, 3, 16, 11, 33, 11, 61, 15, 4, 27, 0)
s = 79: (0, 21, 5, 35, 8, 57, 13, 37, 9, 3, 43, 0)
s = 80: (0, 39, 3, 22, 11, 50, 13, 80, 9, 2, 26, 0)
s = 81: (0, 31, 6, 25, 11, 38, 13, 67, 10, 2, 21, 0)
s = 82: (0, 31, 6, 23, 11, 27, 12, 53, 13, 2, 32, 0)
s = 83: (0, 26, 4, 15, 9, 25, 10, 55, 12, 2, 53, 0)
s = 84: (0, 22, 4, 15, 10, 41, 11, 77, 11, 3, 24, 0)
s = 85: (0, 28, 3, 24, 14, 40, 16, 67, 8, 2, 52, 0)
s = 86: (0, 19, 3, 27, 15, 52, 13, 38, 10, 3, 27, 0)
s = 87: (0, 16, 3, 22, 9, 55, 12, 61, 14, 2, 23, 0)
s = 88: (0, 25, 4, 24, 17, 29, 14, 31, 9, 3, 28, 0)
s = 89: (0, 27, 6, 21, 12, 27, 20, 67, 11, 2, 58, 0)
s = 90: (0, 23, 5, 42, 10, 45, 12, 34, 10, 2, 57, 0)
s = 91: (0, 26, 4, 25, 10, 31, 8, 47, 10, 3, 26, 0)
s = 92: (0, 24, 5, 29, 14, 33, 10, 31, 10, 2, 38, 0)
s = 93: (0, 17, 6, 22, 12, 41, 13, 81, 8, 2, 51, 0)
s = 94: (0, 14, 3, 23, 10, 37, 18, 39, 11, 2, 21, 0)
s = 95: (0, 14, 5, 38, 8, 46, 17, 61, 12, 3, 29, 0)
s = 96: (0, 28, 5, 30, 12, 54, 9, 79, 10, 2, 40, 0)
s = 97: (0, 24, 4, 44, 11, 34, 22, 53, 14, 3, 37, 0)
s = 98: (0, 20, 4, 20, 12, 40, 18, 39, 14, 3, 46, 0)
s = 99: (0, 24, 5, 33, 11, 23, 17, 45, 8, 2, 38, 0)
s = 100: (0, 23, 4, 21, 12, 47, 9, 53, 6, 2, 44, 0)
s = 101: (0, 33, 4, 17, 13, 46, 18, 72, 10, 3, 42, 0)
s = 102: (0, 25, 4, 23, 11, 50, 18, 77, 11, 2, 39, 0)
s = 103: (0, 29, 3, 27, 11, 51, 11, 90, 15, 3, 47, 0)
s = 104: (0, 16, 4, 28, 8, 26, 14, 62, 10, 3, 29, 0)
s = 105: (0, 41, 3, 20, 11, 25, 15, 102, 7, 3, 40, 0)
s = 106: (0, 28, 5, 36, 18, 52, 18, 65, 7, 3, 54, 0)
s = 107: (0, 27, 6, 27, 11, 44, 13, 91, 11, 2, 21, 0)
s = 108: (0, 30, 4, 17, 10, 33, 21, 52, 7, 2, 33, 0)
s = 109: (0, 22, 3, 19, 14, 53, 10, 75, 14, 2, 51, 0)
s = 110: (0, 22, 4, 27, 13, 20, 12, 69, 8, 2, 28, 0)
s = 111: (0, 13, 4, 17, 14, 32, 16, 38, 11, 2, 24, 0)
s = 112: (0, 20, 5, 32, 12, 27, 12, 42, 14, 4, 38, 0)
s = 113: (0, 19, 3, 40, 8, 48, 20, 36, 8, 3, 51, 0)
s = 114: (0, 25, 5, 30, 12, 33, 18, 42, 7, 2, 67, 0)
s = 115: (0, 25, 5, 22, 14, 29, 9, 48, 14, 2, 45, 0)
s = 116: (0, 15, 3, 28, 11, 55, 9, 42, 7, 3, 30, 0)
s = 117: (0, 28, 4, 17, 9, 54, 12, 40, 11, 2, 36, 0)
s = 118: (0, 39, 4, 28, 16, 43, 13, 82, 10, 2, 58, 0)
s = 119: (0, 22, 5, 20, 9, 32, 17, 52, 14, 3, 40, 0)
s = 120: (0, 20, 4, 14, 18, 34, 16, 85, 11, 3, 47, 0)
s = 121: (0, 18, 5, 28, 9, 30, 12, 115, 16, 4, 30, 0)
s = 122: (0, 24, 4, 21, 9, 24, 19, 46, 10, 2, 37, 0)
s = 123: (0, 21, 4, 33, 9, 25, 18, 36, 14, 3, 42, 0)
s = 124: (0, 14, 4, 13, 7, 31, 12, 66, 9, 2, 38, 0)
s = 125: (0, 31, 4, 33, 13, 51, 8, 49, 9, 3, 41, 0)
s = 126: (0, 17, 5, 26, 12, 46, 12, 88, 7, 3, 29, 0)
s = 127: (0, 30, 4, 23, 11, 35, 17, 71, 9, 2, 49, 0)
s = 128: (0, 29, 6, 28, 10, 50, 9, 53, 15, 2, 35, 0)
s = 129: (0, 21, 4, 17, 11, 54, 11, 53, 14, 2, 21, 0)
s = 130: (0, 17, 4, 20, 10, 58, 15, 28, 9, 2, 46, 0)
s = 131: (0, 15, 5, 24, 14, 38, 9, 37, 13, 2, 40, 0)
s = 132: (0, 36, 6, 21, 10, 44, 15, 41, 12, 3, 33, 0)
s = 133: (0, 20, 4, 25, 14, 31, 22, 80, 9, 2, 38, 0)
s = 134: (0, 25, 4, 15, 18, 52, 15, 66, 13, 2, 52, 0)
s = 135: (0, 15, 4, 17, 11, 33, 21, 62, 10, 2, 31, 0)
s = 136: (0, 24, 3, 30, 8, 26, 11, 48, 9, 3, 54, 0)
s = 137: (0, 24, 6, 16, 12, 36, 21, 54, 7, 2, 47, 0)
s = 138: (0, 26, 4, 28, 11, 27, 13, 44, 9, 2, 43, 0)
s = 139: (0, 17, 3, 22, 15, 20, 11, 39, 12, 2, 43, 0)
s = 140: (0, 35, 5, 15, 18, 46, 21, 67, 11, 2, 30, 0)
s = 141: (0, 27, 3, 24, 20, 45, 15, 62, 12, 2, 29, 0)
s = 142: (0, 28, 4, 23, 12, 27, 14, 35, 8, 3, 43, 0)
s = 143: (0, 21, 3, 22, 8, 41, 16, 51, 12, 2, 25, 0)
s = 144: (0, 16, 6, 24, 7, 36, 10, 60, 7, 2, 41, 0)
s = 145: (0, 24, 4, 32, 19, 28, 17, 78, 13, 3, 49, 0)
s = 146: (0, 22, 5, 17, 9, 29, 17, 42, 7, 3, 32, 0)
s = 147: (0, 25, 5, 39, 16, 33, 12, 90, 13, 3, 35, 0)
s = 148: (0, 30, 3, 20, 18, 42, 11, 71, 8, 2, 55, 0)
s = 149: (0, 25, 4, 30, 9, 31, 11, 55, 12, 3, 56, 0)
s = 150: (0, 27, 3, 28, 10, 36, 10, 39, 7, 2, 36, 0)
s = 151: (0, 22, 4, 26, 8, 52, 19, 34, 7, 2, 44, 0)
s = 152: (0, 14, 3, 26, 12, 29, 16, 57, 8, 3, 49, 0)
s = 153: (0, 39, 5, 24, 10, 29, 26, 50, 10, 2, 40, 0)
s = 154: (0, 31, 6, 21, 11, 44, 14, 47, 7, 2, 31, 0)
s = 155: (0, 25, 5, 23, 13, 41, 20, 70, 16, 2, 36, 0)
s = 156: (0, 16, 3, 24, 9, 37, 16, 63, 15, 3, 37, 0)
s = 157: (0, 17, 4, 37, 12, 43, 9, 45, 7, 2, 28, 0)
s = 158: (0, 28, 4, 41, 14, 30, 11, 48, 16, 3, 42, 0)
s = 159: (0, 28, 3, 30, 16, 33, 16, 60, 12, 2, 26, 0)
s = 160: (0, 33, 3, 17, 9, 35, 17, 46, 6, 3, 24, 0)
s = 161: (0, 19, 5, 17, 12, 39, 11, 44, 13, 4, 57, 0)
s = 162: (0, 14, 6, 35, 10, 28, 10, 63, 13, 2, 50, 0)
s = 163: (0, 26, 4, 23, 12, 43, 13, 68, 11, 3, 31, 0)
s = 164: (0, 23, 3, 18, 8, 42, 13, 32, 10, 3, 33, 0)
s = 165: (0, 14, 3, 28, 16, 29, 26, 48, 6, 2, 54, 0)
s = 166: (0, 44, 3, 15, 18, 42, 13, 58, 17, 2, 47, 0)
s = 167: (0, 16, 4, 22, 16, 37, 23, 65, 7, 3, 39, 0)
s = 168: (0, 25, 4, 22, 11, 33, 18, 71, 11, 2, 29, 0)
s = 169: (0, 27, 4, 26, 11, 41, 9, 57, 9, 3, 52, 0)
s = 170: (0, 20, 4, 24, 14, 44, 14, 35, 11, 2, 31, 0)
s = 171: (0, 23, 5, 16, 12, 36, 19, 61, 9, 2, 42, 0)
s = 172: (0, 21, 5, 38, 8, 29, 12, 88, 12, 3, 39, 0)
s = 173: (0, 15, 6, 33, 12, 24, 14, 45, 12, 2, 26, 0)
s = 174: (0, 30, 4, 18, 10, 46, 18, 69, 9, 2, 23, 0)
s = 175: (0, 20, 4, 20, 13, 35, 20, 65, 11, 2, 27, 0)
s = 176: (0, 23, 3, 31, 11, 43, 18, 48, 10, 2, 31, 0)
s = 177: (0, 37, 5, 26, 17, 25, 8, 54, 11, 3, 26, 0)
s = 178: (0, 26, 6, 20, 16, 34, 24, 51, 9, 4, 40, 0)
s = 179: (0, 23, 3, 24, 12, 38, 20, 95, 10, 3, 41, 0)
s = 180: (0, 22, 7, 30, 16, 28, 10, 47, 9, 2, 58, 0)
s = 181: (0, 28, 5, 32, 10, 46, 12, 58, 11, 2, 40, 0)
s = 182: (0, 24, 5, 21, 8, 59, 18, 45, 10, 4, 42, 0)
s = 183: (0, 17, 7, 32, 15, 35, 10, 61, 10, 4, 31, 0)
s = 184: (0, 35, 3, 26, 13, 59, 11, 41, 14, 2, 40, 0)
s = 185: (0, 40, 6, 17, 10, 39, 19, 31, 13, 3, 26, 0)
s = 186: (0, 24, 3, 16, 14, 28, 20, 43, 8, 2, 39, 0)
s = 187: (0, 22, 5, 15, 15, 34, 14, 46, 6, 3, 46, 0)
s = 188: (0, 34, 4, 39, 18, 38, 14, 45, 7, 3, 55, 0)
s = 189: (0, 28, 6, 27, 9, 55, 10, 53, 9, 4, 30, 0)
s = 190: (0, 23, 7, 26, 9, 34, 18, 61, 12, 2, 25, 0)
s = 191: (0, 22, 4, 21, 19, 37, 11, 47, 9, 2, 49, 0)
s = 192: (0, 18, 4, 20, 9, 38, 13, 49, 8, 3, 27, 0)
s = 193: (0, 24, 3, 16, 11, 27, 17, 45, 7, 3, 34, 0)
s = 194: (0, 16, 3, 24, 9, 27, 22, 59, 7, 3, 31, 0)
s = 195: (0, 24, 8, 18, 12, 31, 15, 76, 9, 2, 49, 0)
s = 196: (0, 40, 5, 24, 17, 36, 10, 44, 9, 2, 42, 0)
s = 197: (0, 23, 5, 20, 10, 26, 11, 47, 11, 2, 59, 0)
s = 198: (0, 25, 4, 13, 10, 26, 24, 38, 15, 3, 54, 0)
s = 199: (0, 24, 7, 30, 20, 37, 11, 40, 17, 2, 24, 0)
s = 200: (0, 31, 3, 19, 16, 28, 13, 41, 10, 3, 40, 0)
************************************************************************
ES/LS-VALUES:
jobnr.   ES(i)    LS(i)
------------------------------------------------------------------------
  0        0        0
  1        0       65
  2        0       64
  3        0       51
  4        5       62
  5        2       66
  6        8       66
  7        5       57
  8       17       74
  9       11       76
 10       17       70
 11       24       78
************************************************************************
BIG-M-VALUES:
M1 = 70, M2 = 397
************************************************************************
